c THIS FORMULA IS GENERATED BY CNF
c 
c atomics
c X_PI <= 70.62_2_p:1
c X_PI <= 42.09_1_s:2
c C_1_2:3
c X_PI <= 70.62_2_s:4
c C_2_1:5
c X_PI <= 42.09_2_s:6
c X_PI <= 70.62_1_n:7
c X_PI <= 70.62_2_n:8
c X_PI <= 42.09_1_n:9
c C_1_1:10
c C_2_2:11
c X_PI <= 42.09_2_p:12
c X_PI <= 42.09_1_p:13
c X_GS <= 37.89_2_n:14
c X_GS <= 37.89_1_p:15
c X_GS <= 37.89_1_s:16
c X_GS <= 37.89_2_s:17
c X_GS <= 37.89_2_p:18
c X_PI <= 42.09_2_n:19
c X_PI <= 70.62_1_p:20
c X_GS <= 37.89_1_n:21
c X_PI <= 70.62_1_s:22
c end atomics
p cnf 22 179
13 -13 -13 0
13 -13 -9 0
13 -13 2 0
13 9 -13 0
13 9 -9 0
13 9 2 0
13 -2 -13 0
13 -2 -9 0
13 -2 2 0
-9 -13 -13 0
-9 -13 -9 0
-9 -13 2 0
-9 9 -13 0
-9 9 -9 0
-9 9 2 0
-9 -2 -13 0
-9 -2 -9 0
-9 -2 2 0
-2 -13 -13 0
-2 -13 -9 0
-2 -13 2 0
-2 9 -13 0
-2 9 -9 0
-2 9 2 0
-2 -2 -13 0
-2 -2 -9 0
-2 -2 2 0
20 -20 -20 0
20 -20 -7 0
20 -20 22 0
20 7 -20 0
20 7 -7 0
20 7 22 0
20 -22 -20 0
20 -22 -7 0
20 -22 22 0
-7 -20 -20 0
-7 -20 -7 0
-7 -20 22 0
-7 7 -20 0
-7 7 -7 0
-7 7 22 0
-7 -22 -20 0
-7 -22 -7 0
-7 -22 22 0
-22 -20 -20 0
-22 -20 -7 0
-22 -20 22 0
-22 7 -20 0
-22 7 -7 0
-22 7 22 0
-22 -22 -20 0
-22 -22 -7 0
-22 -22 22 0
15 -15 -15 0
15 -15 -21 0
15 -15 16 0
15 21 -15 0
15 21 -21 0
15 21 16 0
15 -16 -15 0
15 -16 -21 0
15 -16 16 0
-21 -15 -15 0
-21 -15 -21 0
-21 -15 16 0
-21 21 -15 0
-21 21 -21 0
-21 21 16 0
-21 -16 -15 0
-21 -16 -21 0
-21 -16 16 0
-16 -15 -15 0
-16 -15 -21 0
-16 -15 16 0
-16 21 -15 0
-16 21 -21 0
-16 21 16 0
-16 -16 -15 0
-16 -16 -21 0
-16 -16 16 0
12 -12 -12 0
12 -12 -19 0
12 -12 6 0
12 19 -12 0
12 19 -19 0
12 19 6 0
12 -6 -12 0
12 -6 -19 0
12 -6 6 0
-19 -12 -12 0
-19 -12 -19 0
-19 -12 6 0
-19 19 -12 0
-19 19 -19 0
-19 19 6 0
-19 -6 -12 0
-19 -6 -19 0
-19 -6 6 0
-6 -12 -12 0
-6 -12 -19 0
-6 -12 6 0
-6 19 -12 0
-6 19 -19 0
-6 19 6 0
-6 -6 -12 0
-6 -6 -19 0
-6 -6 6 0
1 -1 -1 0
1 -1 -8 0
1 -1 4 0
1 8 -1 0
1 8 -8 0
1 8 4 0
1 -4 -1 0
1 -4 -8 0
1 -4 4 0
-8 -1 -1 0
-8 -1 -8 0
-8 -1 4 0
-8 8 -1 0
-8 8 -8 0
-8 8 4 0
-8 -4 -1 0
-8 -4 -8 0
-8 -4 4 0
-4 -1 -1 0
-4 -1 -8 0
-4 -1 4 0
-4 8 -1 0
-4 8 -8 0
-4 8 4 0
-4 -4 -1 0
-4 -4 -8 0
-4 -4 4 0
18 -18 -18 0
18 -18 -14 0
18 -18 17 0
18 14 -18 0
18 14 -14 0
18 14 17 0
18 -17 -18 0
18 -17 -14 0
18 -17 17 0
-14 -18 -18 0
-14 -18 -14 0
-14 -18 17 0
-14 14 -18 0
-14 14 -14 0
-14 14 17 0
-14 -17 -18 0
-14 -17 -14 0
-14 -17 17 0
-17 -18 -18 0
-17 -18 -14 0
-17 -18 17 0
-17 14 -18 0
-17 14 -14 0
-17 14 17 0
-17 -17 -18 0
-17 -17 -14 0
-17 -17 17 0
-2 -22 -16 0
-6 -4 -17 0
13 20 21 0
12 1 14 0
-13 -10 0
-20 -10 0
-15 -10 0
-12 -5 0
-1 -5 0
-18 -5 0
-13 -3 0
-7 -3 0
-15 -3 0
-12 -11 0
-8 -11 0
-18 -11 0
10 5 0
3 11 0
